N = 12;
H = 5;
T = 2;

avail = array3d(1..N, 1..H, 1..T, [8, 5, 4, 10, 4, 5, 4, 9, 3, 0, 7, 2, 4, 3, 4, 7, 10, 1, 9, 9, 1, 9, 7, 4, 2, 9, 7, 8, 6, 9, 10, 8, 6, 5, 6, 8, 10, 8, 0, 5, 9, 6, 6, 0, 1, 8, 5, 10, 5, 3, 3, 9, 4, 6, 4, 8, 8, 8, 9, 5, 9, 2, 2, 4, 10, 10, 9, 2, 2, 2, 6, 0, 1, 3, 2, 10, 7, 0, 7, 4, 4, 3, 3, 1, 3, 6, 0, 3, 8, 5, 9, 3, 8, 6, 6, 1, 9, 7, 2, 5, 6, 7, 4, 7, 7, 10, 4, 7, 6, 6, 4, 9, 10, 1, 7, 6, 10, 3, 7, 1]);

r = array2d(1..H, 1..T, [7, 2, 3, 2, 2, 3, 3, 3, 0, 3]);
